64 51 76 89 91 
63 85 84 56 66 
5 45 2 7 8 46 3 1 4 70 
99 86 87 74 
82 12 11 9 10 55 
90 
69 88 53 78 60 
39 36 38 41 40 35 37 
33 28 27 26 32 93 
61 81 68 
59 75 97 58 77 
98 73 79 6 100 
92 31 29 30 34 50 80 
14 47 15 16 17 13 
72 42 44 43 54 
65 52 57 22 49 20 24 
95 62 67 71 94 96 
83 23 21 19 18 48 25 
